--- Job MaxStdev.gms Start 06/09/22 20:29:32 39.2.0 e0c5072f WEX-WEI x86 64bit/MS Windows
--- Applying:
    C:\GAMS\39\gmsprmNT.txt
--- GAMS Parameters defined
    Input C:\projects\OptimizationModels\MaxStdev\MaxStdev.gms
    PageSize 0
    ScrDir C:\projects\OptimizationModels\MaxStdev\225a\
    SysDir C:\GAMS\39\
    LogOption 3
    ErrMsg 1
    ErrorLog 99
    IDE 1
    LstTitleLeftAligned 1
Licensee: Eval License                                   G211206|0002CO-GEN
          Amsterdam Optimization Modeling Group,                     DCE378
          C:\Users\erwin\Documents\GAMS\gamslice.txt
          License Admin: Erwin Kalvelagen, info@amsterdamoptimization.com  
          Evaluation license: Not for commercial or production use
Processor information: 1 socket(s), 8 core(s), and 16 thread(s) available
GAMS 39.2.0   Copyright (C) 1987-2022 GAMS Development. All rights reserved
--- Starting compilation
--- MaxStdev.gms(91) 3 Mb
--- $echo File C:\projects\OptimizationModels\MaxStdev\cplex.opt
--- MaxStdev.gms(154) 3 Mb
--- Starting execution: elapsed 0:00:00.029
--- MaxStdev.gms(87) 4 Mb
--- Generating QCP model m1
--- MaxStdev.gms(88) 6 Mb
---   3 rows  32 columns  93 non-zeroes
---   122 nl-code  31 nl-non-zeroes
--- Range statistics (absolute non-zero finite values)
--- RHS       [min, max] : [ 3.000E+01, 3.000E+01] - Zero values observed as well
--- Bound     [min, max] : [ 5.000E-01, 3.000E+00]
--- Matrix    [min, max] : [ 3.333E-02, 3.000E+01]
--- MaxStdev.gms(88) 4 Mb
--- Executing CPLEX (Solvelink=2): elapsed 0:00:00.081

IBM ILOG CPLEX   39.2.0 e0c5072f Jun 2, 2022           WEI x86 64bit/MS Window

--- GAMS/Cplex Link licensed for continuous and discrete problems.

Reading parameter(s) from "C:\projects\OptimizationModels\MaxStdev\cplex.opt"
>>  OptimalityTarget=3
Finished reading from "C:\projects\OptimizationModels\MaxStdev\cplex.opt"

--- GMO setup time: 0.00s
--- No duals possible for models with quadratic objective when solved globally
--- GMO memory 0.51 Mb (peak 0.51 Mb)
--- Dictionary memory 0.00 Mb
--- Cplex 22.1.0.0 link memory 0.00 Mb (peak 0.00 Mb)
--- Starting Cplex

Version identifier: 22.1.0.0 | 2022-03-09 | 1a383f8ce
CPXPARAM_Advance                                 0
CPXPARAM_Simplex_Display                         2
CPXPARAM_Threads                                 16
CPXPARAM_Parallel                                1
CPXPARAM_OptimalityTarget                        3
CPXPARAM_MIP_Display                             4
CPXPARAM_MIP_Pool_Capacity                       0
CPXPARAM_MIP_Tolerances_AbsMIPGap                0
Generic callback                                 0x50
Warning: global optimality target changes problem type to MIQP.
Tried aggregator 1 time.
MIQP Presolve eliminated 0 rows and 1 columns.
MIQP Presolve modified 30 coefficients.
Reduced MIQP has 2 rows, 92 columns, and 60 nonzeros.
Reduced MIQP has 0 binaries, 0 generals, 0 SOSs, and 0 indicators.
Reduced MIQP objective Q matrix has 91 nonzeros.
Presolve time = 0.00 sec. (0.07 ticks)
Dual steepest-edge pricing selected.
MIP emphasis: balance optimality and feasibility.
MIP search method: dynamic search.
Parallel mode: deterministic, using up to 16 threads.
Tried aggregator 0 times.
Reduced presolve eliminated 0 rows and 61 columns.
Reduced QP has 2 rows, 31 columns, and 60 nonzeros.
Presolve time = 0.00 sec. (0.02 ticks)
Parallel mode: using up to 16 threads for barrier.
Number of nonzeros in lower triangle of A*A' = 1
Using Approximate Minimum Degree ordering
Total time for automatic ordering = 0.00 sec. (0.00 ticks)
Summary statistics for Cholesky factor:
  Threads                   = 16
  Rows in Factor            = 2
  Integer space required    = 2
  Total non-zeros in factor = 3
  Total FP ops to factor    = 5
 Itn      Primal Obj        Dual Obj  Prim Inf Upper Inf  Dual Inf          
   0   3.3165846e+02   3.6739956e+02  5.48e+02  9.56e+02  0.00e+00
   1   3.3165846e+02   3.6303438e+02  4.75e+00  8.29e+00  2.66e-15
   2   3.3165846e+02   3.4012189e+02  3.66e-15  2.91e-16  3.16e-15
   3   3.3165846e+02   3.3179497e+02  1.11e-16  5.55e-16  1.13e-15
   4   3.3165846e+02   3.3166075e+02  3.55e-15  5.55e-16  3.15e-17
   5   3.3165846e+02   3.3165850e+02  1.11e-16  5.00e-16  3.29e-19
   6   3.3165846e+02   3.3165846e+02  0.00e+00  9.99e-16  6.78e-21
   7   3.3165846e+02   3.3165846e+02  1.89e-15  8.33e-16  1.23e-22
   8   3.3165846e+02   3.3165846e+02  1.08e-14  1.05e-15  2.29e-24
Barrier time = 0.02 sec. (0.07 ticks)

Primal crossover.
  Primal:  Fixing 29 variables.
       28 PMoves:  Infeasibility  0.00000000e+00  Objective  3.31658464e+02
        0 PMoves:  Infeasibility  0.00000000e+00  Objective  3.31658464e+02
  Primal:  Pushed 24, exchanged 5.
  Dual:  Fixed no variables.
Initializing primal norms rowwise . . .
Initializing primal norms rowwise . . .
Total crossover time = 0.00 sec. (0.05 ticks)

Total time on 16 threads = 0.02 sec. (0.13 ticks)
Root relaxation solution time = 0.02 sec. (0.13 ticks)

        Nodes                                         Cuts/
   Node  Left     Objective  IInf  Best Integer    Best Bound    ItCnt     Gap

      0     0       70.4542     0                     70.4542        8         
*     0+    0                            6.8469       70.4542           928.99%
Found incumbent of value 6.846901 after 0.02 sec. (2.32 ticks)
*     0+    0                           46.3677       70.4542            51.95%
Found incumbent of value 46.367745 after 0.02 sec. (4.14 ticks)
      0     0       48.5488     0       46.3677        RLT: 2       28    4.70%
      0     0       48.5200     0       46.3677        BQP: 4       30    4.64%
      0     0       47.8722     0       46.3677        BQP: 4       32    3.24%
      0     0       47.7988     0       46.3677        BQP: 4       34    3.09%
      0     0       47.7268     0       46.3677        BQP: 4       36    2.93%
      0     0       47.3788     0       46.3677        BQP: 4       38    2.18%
      0     0       47.2850     0       46.3677        BQP: 4       40    1.98%
      0     0       46.7247     0       46.3677        BQP: 4       82    0.77%
      0     2       46.7247     0       46.3677       46.7247       82    0.77%
Elapsed time = 0.03 sec. (17.81 ticks, tree = 0.02 MB)
*    55+    7                           46.4195       46.7232             0.65%
Found incumbent of value 46.419530 after 0.05 sec. (23.51 ticks)
*   382+   49                           46.4420       46.6935             0.54%
Found incumbent of value 46.442037 after 0.08 sec. (30.15 ticks)
*   432+   26                           46.5521       46.6935             0.30%
Found incumbent of value 46.552086 after 0.08 sec. (31.32 ticks)
*   548+    9                           46.6137       46.6877             0.16%
Found incumbent of value 46.613714 after 0.08 sec. (34.97 ticks)
*   598+    9                           46.6326       46.6635             0.07%
Found incumbent of value 46.632599 after 0.09 sec. (40.30 ticks)

Root node processing (before b&c):
  Real time             =    0.03 sec. (17.59 ticks)
Parallel b&c, 16 threads:
  Real time             =    0.06 sec. (26.44 ticks)
  Sync time (average)   =    0.03 sec.
  Wait time (average)   =    0.00 sec.
                          ------------
Total (root+branch&cut) =    0.09 sec. (44.03 ticks)

--- MIQP status (102): integer optimal, tolerance.
--- Cplex Time: 0.09sec (det. 44.03 ticks)

--- Returning a primal only solution to GAMS (marginals all set to NA).

Solution satisfies tolerances
MIP Solution:           46.632599    (10691 iterations, 613 nodes)

Best possible:          46.635206
Absolute gap:            0.002607
Relative gap:            0.000056

--- Reading solution for model m1
***
*** Solver did not provide marginals for model m1
***
--- Executing after solve: elapsed 0:00:00.302
--- MaxStdev.gms(103) 4 Mb
--- Generating MIP model m2
--- MaxStdev.gms(117) 4 Mb
---   33 rows  92 columns  242 non-zeroes
--- Range statistics (absolute non-zero finite values)
--- RHS       [min, max] : [ 3.000E+01, 3.000E+01] - Zero values observed as well
--- Bound     [min, max] : [ 5.000E-01, 3.000E+00] - Zero values observed as well
--- Matrix    [min, max] : [ 3.333E-02, 1.996E+00]
--- Executing CPLEX (Solvelink=2): elapsed 0:00:00.304

IBM ILOG CPLEX   39.2.0 e0c5072f Jun 2, 2022           WEI x86 64bit/MS Window

--- GAMS/Cplex Link licensed for continuous and discrete problems.
--- GMO setup time: 0.00s
--- GMO memory 0.51 Mb (peak 0.51 Mb)
--- Dictionary memory 0.00 Mb
--- Cplex 22.1.0.0 link memory 0.00 Mb (peak 0.01 Mb)
--- Starting Cplex

Version identifier: 22.1.0.0 | 2022-03-09 | 1a383f8ce
CPXPARAM_Advance                                 0
CPXPARAM_Threads                                 16
CPXPARAM_Parallel                                1
CPXPARAM_MIP_Display                             4
CPXPARAM_MIP_Pool_Capacity                       0
CPXPARAM_TimeLimit                               1000
CPXPARAM_MIP_Tolerances_AbsMIPGap                0
Generic callback                                 0x50
Tried aggregator 1 time.
MIP Presolve eliminated 0 rows and 1 columns.
MIP Presolve modified 30 coefficients.
Reduced MIP has 32 rows, 91 columns, and 180 nonzeros.
Reduced MIP has 0 binaries, 0 generals, 30 SOSs, and 0 indicators.
Presolve time = 0.00 sec. (0.10 ticks)
Tried aggregator 1 time.
Detecting symmetries...
Reduced MIP has 32 rows, 91 columns, and 180 nonzeros.
Reduced MIP has 0 binaries, 0 generals, 30 SOSs, and 0 indicators.
Presolve time = 0.00 sec. (0.11 ticks)
MIP emphasis: balance optimality and feasibility.
MIP search method: dynamic search.
Parallel mode: deterministic, using up to 16 threads.
Initializing dual steep norms . . .

Iteration log . . .
Iteration:     1    Scaled infeas =             2.099221
Switched to devex.
Iteration:    10    Objective     =             4.311537
Root relaxation solution time = 0.00 sec. (0.08 ticks)

        Nodes                                         Cuts/
   Node  Left     Objective  IInf  Best Integer    Best Bound    ItCnt     Gap

      0     0     unbounded                                         10         
      0     2     unbounded                                         10         
Elapsed time = 0.00 sec. (0.47 ticks, tree = 0.02 MB)
*   567   284      integral     0        3.9324                   4031    0.00%
Found incumbent of value 3.932359 after 0.02 sec. (4.59 ticks)
*   587   327      integral     0        7.9278                   5499    0.00%
Found incumbent of value 7.927762 after 0.02 sec. (4.73 ticks)
*   727   456      integral     0        8.2274                   8901    0.00%
Found incumbent of value 8.227449 after 0.02 sec. (5.65 ticks)
*   750   481      integral     0       12.2995                   9570    0.00%
Found incumbent of value 12.299479 after 0.02 sec. (5.79 ticks)
*   781   385      integral     0       12.3863                   6872    0.00%
Found incumbent of value 12.386296 after 0.02 sec. (5.97 ticks)
*   805   538      integral     0       16.2586                  10545    0.00%
Found incumbent of value 16.258627 after 0.02 sec. (6.13 ticks)
*  1001   755      integral     0       16.4269                  14505    0.00%
Found incumbent of value 16.426906 after 0.03 sec. (7.46 ticks)
*  1021   754      integral     0       20.0949                  14539    0.00%
Found incumbent of value 20.094942 after 0.03 sec. (7.62 ticks)
*  1047   753      integral     0       20.1749                  14559    0.00%
Found incumbent of value 20.174925 after 0.03 sec. (7.81 ticks)
*  1086   754      integral     0       20.4679                  14596    0.00%
Found incumbent of value 20.467922 after 0.03 sec. (8.10 ticks)
*  1100   753      integral     0       23.8778                  14614    0.00%
Found incumbent of value 23.877796 after 0.03 sec. (8.18 ticks)
*  1527   756      integral     0       23.9331                  14804    0.00%
Found incumbent of value 23.933119 after 0.03 sec. (10.26 ticks)
*  1653   964      integral     0       23.9932                  19024    0.00%
Found incumbent of value 23.993217 after 0.03 sec. (10.83 ticks)
*  1681   911      integral     0       26.7059                  17976    0.00%
Found incumbent of value 26.705893 after 0.03 sec. (10.95 ticks)
*  2014   856      integral     0       26.8232                  16982    0.00%
Found incumbent of value 26.823165 after 0.03 sec. (12.41 ticks)
*  2132  1171      integral     0       27.4446                  23766    0.00%
Found incumbent of value 27.444566 after 0.03 sec. (12.87 ticks)
*  2316  1177      integral     0       29.1535                  23935    0.00%
Elapsed time = 0.03 sec. (13.59 ticks, tree = 0.43 MB)
Found incumbent of value 29.153549 after 0.03 sec. (13.59 ticks)
*  2381  1305      integral     0       29.1616                  27371    0.00%
Found incumbent of value 29.161578 after 0.05 sec. (13.87 ticks)
*  3150  1420      integral     0       29.3305                  30435    0.00%
Found incumbent of value 29.330478 after 0.05 sec. (16.92 ticks)
*  4024  1506      integral     0       30.0364                  32895    0.00%
Found incumbent of value 30.036407 after 0.05 sec. (19.95 ticks)
*  6935  1530      integral     0       30.5231                  34880    0.00%
Found incumbent of value 30.523134 after 0.08 sec. (29.78 ticks)
*  7018  1740      integral     0       30.9733                  47434    0.00%
Found incumbent of value 30.973262 after 0.08 sec. (30.06 ticks)
*  7343  1779      integral     0       31.0481                  50401    0.00%
Found incumbent of value 31.048067 after 0.08 sec. (31.11 ticks)
*  7600  1747      integral     0       31.2864                  47611    0.00%
Found incumbent of value 31.286449 after 0.08 sec. (31.96 ticks)
*  7909  1786      integral     0       31.3999                  50588    0.00%
Found incumbent of value 31.399884 after 0.08 sec. (32.97 ticks)

Performing restart 1

Repeating presolve.
Tried aggregator 1 time.
Reduced MIP has 32 rows, 91 columns, and 180 nonzeros.
Reduced MIP has 0 binaries, 0 generals, 30 SOSs, and 0 indicators.
Presolve time = 0.00 sec. (0.07 ticks)
Tried aggregator 1 time.
Reduced MIP has 32 rows, 91 columns, and 180 nonzeros.
Reduced MIP has 0 binaries, 0 generals, 30 SOSs, and 0 indicators.
Presolve time = 0.00 sec. (0.12 ticks)
Represolve time = 0.00 sec. (0.28 ticks)
Initializing dual steep norms . . .

Iteration log . . .
Iteration:     1    Scaled infeas =             2.099221
Switched to devex.
Iteration:    10    Objective     =             4.311537
* 21745  1032      integral     0       31.4321                 120988    0.00%
Found incumbent of value 31.432136 after 0.22 sec. (92.58 ticks)
* 22040   948      integral     0       31.4946                 113298    0.00%
Found incumbent of value 31.494568 after 0.22 sec. (93.59 ticks)
* 24936  1124      integral     0       31.5620                 132433    0.00%
Found incumbent of value 31.561961 after 0.23 sec. (102.54 ticks)
* 27293  1270      integral     0       31.5820                 144054    0.00%
Found incumbent of value 31.581982 after 0.25 sec. (109.77 ticks)
* 27321  1345      integral     0       32.0359                 151441    0.00%
Found incumbent of value 32.035948 after 0.25 sec. (109.85 ticks)
* 28708  1258      integral     0       33.2901                 144125    0.00%
Found incumbent of value 33.290064 after 0.27 sec. (113.99 ticks)
* 41304  1479      integral     0       33.4170                 172812    0.00%
Found incumbent of value 33.416980 after 0.34 sec. (149.99 ticks)
* 53373  1652      integral     0       34.6304                 207719    0.00%
Found incumbent of value 34.630389 after 0.42 sec. (185.58 ticks)
* 53479  1689      integral     0       34.7224                 224650    0.00%
Found incumbent of value 34.722391 after 0.42 sec. (185.88 ticks)
* 72332  1760      integral     0       34.7655                 248414    0.00%
Found incumbent of value 34.765519 after 0.55 sec. (246.37 ticks)
* 83185  1940      integral     0       34.7863                 308466    0.00%
Found incumbent of value 34.786250 after 0.67 sec. (302.67 ticks)
*106068  2031      integral     0       34.7994                 348325    0.00%
Found incumbent of value 34.799389 after 0.92 sec. (419.62 ticks)
*132971  2110      integral     0       34.8235                 398834    0.00%
Found incumbent of value 34.823495 after 1.23 sec. (561.75 ticks)
*146012  2173      integral     0       35.3078                 444371    0.00%
Found incumbent of value 35.307816 after 1.33 sec. (616.98 ticks)
*146115  2182      integral     0       35.6896                 451946    0.00%
Found incumbent of value 35.689565 after 1.33 sec. (617.34 ticks)
*146618  2193      integral     0       35.9845                 452035    0.00%
Found incumbent of value 35.984507 after 1.34 sec. (618.95 ticks)
 348385  2649     unbounded             35.9845                 859323         
*403686  2857      integral     0       35.9868                1005748    0.00%
Found incumbent of value 35.986799 after 2.70 sec. (1278.77 ticks)
 781156  3532        cutoff             35.9868                1735124    0.00%
*1142237  4100      integral     0       35.9878                2510077    0.00%
Found incumbent of value 35.987833 after 6.67 sec. (3149.01 ticks)
 1156809  4065     unbounded             35.9878                2425357         
Elapsed time = 6.75 sec. (3186.12 ticks, tree = 1.03 MB)
*1206488  4132      integral     0       36.6404                2582344    0.00%
Found incumbent of value 36.640421 after 7.00 sec. (3308.68 ticks)
 1537625  4604     unbounded             36.6404                3311750         
 1920890  4935     unbounded             36.6404                3933038         
 2300678  5288        cutoff             36.6404                4665290    0.00%
 2682877  5623        cutoff             36.6404                5384256    0.00%
 3066825  5917        cutoff             36.6404                6244446    0.00%
 3451471  6098     unbounded             36.6404                6781866         
 3833299  6293        cutoff             36.6404                7487174    0.00%

Root node processing (before b&c):
  Real time             =    0.00 sec. (0.42 ticks)
Parallel b&c, 16 threads:
  Real time             =   23.09 sec. (10654.01 ticks)
  Sync time (average)   =    1.51 sec.
  Wait time (average)   =    0.10 sec.
                          ------------
Total (root+branch&cut) =   23.09 sec. (10654.43 ticks)

--- MIP status (113): aborted.
--- Cplex Time: 23.09sec (det. 10654.43 ticks)

--- Fixing integer variables and solving final LP...

Version identifier: 22.1.0.0 | 2022-03-09 | 1a383f8ce
CPXPARAM_Advance                                 2
CPXPARAM_Threads                                 16
CPXPARAM_Parallel                                1
CPXPARAM_MIP_Display                             4
CPXPARAM_MIP_Pool_Capacity                       0
CPXPARAM_TimeLimit                               1000
CPXPARAM_MIP_Tolerances_AbsMIPGap                0
Tried aggregator 1 time.
LP Presolve eliminated 0 rows and 31 columns.
Reduced LP has 32 rows, 61 columns, and 151 nonzeros.
Presolve time = 0.00 sec. (0.07 ticks)
Initializing dual steep norms . . .

Iteration log . . .
Iteration:     1   Scaled dual infeas =            28.000000
Iteration:    30   Dual objective     =            36.833333

--- Fixed MIP status (1): optimal.
--- Cplex Time: 0.00sec (det. 0.18 ticks)


Problem aborted
MIP Solution:           36.640421    (8655648 iterations, 4141636 nodes)
Final Solve:            36.640421    (31 iterations)

Best possible:               +inf
Absolute gap:                  na
Relative gap:                  na

--- Reading solution for model m2
--- Executing after solve: elapsed 0:00:23.434
--- MaxStdev.gms(125) 4 Mb
--- Generating MIP model m2
--- MaxStdev.gms(126) 4 Mb
---   33 rows  92 columns  242 non-zeroes
--- Range statistics (absolute non-zero finite values)
--- RHS       [min, max] : [ 3.000E+01, 3.000E+01] - Zero values observed as well
--- Bound     [min, max] : [ 5.000E-01, 7.500E+01] - Zero values observed as well
--- Matrix    [min, max] : [ 3.333E-02, 1.996E+00]
--- Executing CPLEX (Solvelink=2): elapsed 0:00:23.436

IBM ILOG CPLEX   39.2.0 e0c5072f Jun 2, 2022           WEI x86 64bit/MS Window

--- GAMS/Cplex Link licensed for continuous and discrete problems.
--- GMO setup time: 0.00s
--- GMO memory 0.51 Mb (peak 0.51 Mb)
--- Dictionary memory 0.00 Mb
--- Cplex 22.1.0.0 link memory 0.00 Mb (peak 0.01 Mb)
--- Starting Cplex

Version identifier: 22.1.0.0 | 2022-03-09 | 1a383f8ce
CPXPARAM_Advance                                 2
CPXPARAM_Threads                                 16
CPXPARAM_Parallel                                1
CPXPARAM_MIP_Display                             4
CPXPARAM_MIP_Pool_Capacity                       0
CPXPARAM_TimeLimit                               1000
CPXPARAM_MIP_Tolerances_AbsMIPGap                0
Generic callback                                 0x50
Tried aggregator 1 time.
MIP Presolve eliminated 60 rows and 1 columns.
MIP Presolve added 120 rows and 30 columns.
MIP Presolve modified 30 coefficients.
Reduced MIP has 93 rows, 122 columns, and 361 nonzeros.
Reduced MIP has 30 binaries, 0 generals, 0 SOSs, and 0 indicators.
Presolve time = 0.00 sec. (0.22 ticks)
Found incumbent of value 0.000000 after 0.00 sec. (0.45 ticks)
Probing fixed 0 vars, tightened 60 bounds.
Probing time = 0.00 sec. (0.16 ticks)
Tried aggregator 1 time.
Detecting symmetries...
MIP Presolve modified 90 coefficients.
Reduced MIP has 93 rows, 122 columns, and 361 nonzeros.
Reduced MIP has 30 binaries, 0 generals, 0 SOSs, and 0 indicators.
Presolve time = 0.00 sec. (0.19 ticks)
Probing fixed 0 vars, tightened 29 bounds.
Probing time = 0.00 sec. (0.11 ticks)
MIP emphasis: balance optimality and feasibility.
MIP search method: dynamic search.
Parallel mode: deterministic, using up to 16 threads.
Parallel mode: deterministic, using up to 3 threads for parallel tasks at root LP.
Tried aggregator 1 time.
Aggregator did 30 substitutions.
Reduced LP has 63 rows, 92 columns, and 301 nonzeros.
Presolve time = 0.00 sec. (0.08 ticks)
Initializing dual steep norms . . .

Iteration log . . .
Iteration:     1   Dual objective     =            75.000000
Perturbation started.
Iteration:    51   Dual objective     =            75.000000
Removing perturbation.
Initializing dual steep norms . . .
Root relaxation solution time = 0.00 sec. (0.55 ticks)

        Nodes                                         Cuts/
   Node  Left     Objective  IInf  Best Integer    Best Bound    ItCnt     Gap

*     0+    0                            0.0000       75.0000              --- 
Found incumbent of value 0.000000 after 0.00 sec. (1.56 ticks)
      0     0       55.2769    30        0.0000       55.2769       87     --- 
*     0+    0                           37.2066       55.2769            48.57%
Found incumbent of value 37.206640 after 0.00 sec. (2.24 ticks)
      0     0       55.1789    30       37.2066      Cuts: 66      139   48.30%
      0     0       50.6013    23       37.2066      Cuts: 83      191   36.00%
      0     0       45.5077    24       37.2066      Cuts: 89      224   22.31%
      0     0       42.7379    24       37.2066     Cuts: 119      252   14.87%
      0     0       42.3671    24       37.2066      Cuts: 41      263   13.87%
Detecting symmetries...
      0     0       41.9885    23       37.2066      Cuts: 70      278   12.85%
      0     0       41.8744    23       37.2066      Cuts: 28      287   12.55%
      0     0       41.8456    23       37.2066      Cuts: 20      303   12.47%
      0     0       41.8362    22       37.2066       Cuts: 3      308   12.44%
      0     0       41.8348    22       37.2066    MIRcuts: 2      310   12.44%
      0     0       41.8331    21       37.2066    MIRcuts: 2      314   12.43%
*     0+    0                           37.2297       41.8331            12.36%
Found incumbent of value 37.229713 after 0.06 sec. (30.90 ticks)
Detecting symmetries...
      0     2       41.8331    21       37.2297       41.8331      314   12.36%
Elapsed time = 0.06 sec. (31.39 ticks, tree = 0.02 MB)
*  1896   797      integral     0       37.3196       39.7852     7011    6.61%
                                                     Cuts: 21                  
Found incumbent of value 37.319643 after 0.14 sec. (81.91 ticks)

Performing restart 1

Repeating presolve.
Tried aggregator 1 time.
MIP Presolve modified 88 coefficients.
Reduced MIP has 93 rows, 122 columns, and 361 nonzeros.
Reduced MIP has 30 binaries, 0 generals, 0 SOSs, and 0 indicators.
Presolve time = 0.00 sec. (0.14 ticks)
Tried aggregator 1 time.
MIP Presolve modified 79 coefficients.
Reduced MIP has 93 rows, 122 columns, and 361 nonzeros.
Reduced MIP has 30 binaries, 0 generals, 0 SOSs, and 0 indicators.
Presolve time = 0.00 sec. (0.20 ticks)
Represolve time = 0.00 sec. (1.44 ticks)
Tried aggregator 1 time.
LP Presolve eliminated 19 rows and 0 columns.
Aggregator did 7 substitutions.
Reduced LP has 202 rows, 115 columns, and 1357 nonzeros.
Presolve time = 0.00 sec. (0.20 ticks)
Initializing dual steep norms . . .

Iteration log . . .
Iteration:     1   Dual objective     =            75.000000
Iteration:    62   Dual objective     =            48.536392
Initializing dual steep norms . . .
   7243     0       41.4213    23       37.3196      Cuts: 65    31987    3.60%
   7243     0       41.1417    23       37.3196      Cuts: 32    32014    3.60%
   7243     0       40.9513    22       37.3196      Cuts: 52    32041    3.60%
   7243     0       40.8938    24       37.3196      Cuts: 28    32059    3.60%
   7243     0       40.8002    27       37.3196      Cuts: 78    32083    3.60%
   8863   563       37.5565     5       37.3196       38.6647    39840    3.60%
                                                     Cuts: 15                  

Implied bound cuts applied:  1
Flow cuts applied:  1
Mixed integer rounding cuts applied:  39
Lift and project cuts applied:  38
Gomory fractional cuts applied:  6

Root node processing (before b&c):
  Real time             =    0.06 sec. (31.26 ticks)
Parallel b&c, 16 threads:
  Real time             =    0.52 sec. (305.86 ticks)
  Sync time (average)   =    0.13 sec.
  Wait time (average)   =    0.01 sec.
                          ------------
Total (root+branch&cut) =    0.58 sec. (337.12 ticks)

--- MIP status (102): integer optimal, tolerance.
--- Cplex Time: 0.59sec (det. 337.12 ticks)

--- Fixing integer variables and solving final LP...

Version identifier: 22.1.0.0 | 2022-03-09 | 1a383f8ce
CPXPARAM_Advance                                 2
CPXPARAM_Threads                                 16
CPXPARAM_Parallel                                1
CPXPARAM_MIP_Display                             4
CPXPARAM_MIP_Pool_Capacity                       0
CPXPARAM_TimeLimit                               1000
CPXPARAM_MIP_Tolerances_AbsMIPGap                0
Tried aggregator 1 time.
LP Presolve eliminated 0 rows and 31 columns.
Reduced LP has 33 rows, 62 columns, and 182 nonzeros.
Presolve time = 0.00 sec. (0.07 ticks)
Initializing dual steep norms . . .

Iteration log . . .
Iteration:     1   Dual objective     =            75.000000

--- Fixed MIP status (1): optimal.
--- Cplex Time: 0.00sec (det. 0.32 ticks)


Solution satisfies tolerances
MIP Solution:           37.319643    (69873 iterations, 14163 nodes)
Final Solve:            37.319643    (32 iterations)

Best possible:          37.323183
Absolute gap:            0.003541
Relative gap:            0.000095

--- Reading solution for model m2
--- Executing after solve: elapsed 0:00:24.053
--- MaxStdev.gms(130) 4 Mb
--- Generating MIP model m3
--- MaxStdev.gms(152) 4 Mb
---   93 rows  122 columns  362 non-zeroes
---   30 discrete-columns
--- Range statistics (absolute non-zero finite values)
--- RHS       [min, max] : [ 2.500E+00, 3.000E+01] - Zero values observed as well
--- Bound     [min, max] : [ 5.000E-01, 3.000E+00] - Zero values observed as well
--- Matrix    [min, max] : [ 3.333E-02, 2.500E+00]
--- Executing CPLEX (Solvelink=2): elapsed 0:00:24.056

IBM ILOG CPLEX   39.2.0 e0c5072f Jun 2, 2022           WEI x86 64bit/MS Window

--- GAMS/Cplex Link licensed for continuous and discrete problems.
--- GMO setup time: 0.00s
--- GMO memory 0.52 Mb (peak 0.53 Mb)
--- Dictionary memory 0.00 Mb
--- Cplex 22.1.0.0 link memory 0.00 Mb (peak 0.01 Mb)
--- Starting Cplex

Version identifier: 22.1.0.0 | 2022-03-09 | 1a383f8ce
CPXPARAM_Advance                                 0
CPXPARAM_Threads                                 16
CPXPARAM_Parallel                                1
CPXPARAM_MIP_Display                             4
CPXPARAM_MIP_Pool_Capacity                       0
CPXPARAM_TimeLimit                               1000
CPXPARAM_MIP_Tolerances_AbsMIPGap                0
Generic callback                                 0x50
Tried aggregator 1 time.
MIP Presolve eliminated 0 rows and 1 columns.
MIP Presolve modified 30 coefficients.
Reduced MIP has 92 rows, 121 columns, and 300 nonzeros.
Reduced MIP has 30 binaries, 0 generals, 0 SOSs, and 0 indicators.
Presolve time = 0.00 sec. (0.18 ticks)
Found incumbent of value 0.000000 after 0.00 sec. (0.40 ticks)
Probing fixed 0 vars, tightened 60 bounds.
Probing time = 0.00 sec. (0.12 ticks)
Tried aggregator 1 time.
Detecting symmetries...
MIP Presolve modified 90 coefficients.
Reduced MIP has 92 rows, 121 columns, and 300 nonzeros.
Reduced MIP has 30 binaries, 0 generals, 0 SOSs, and 0 indicators.
Presolve time = 0.00 sec. (0.17 ticks)
Probing fixed 0 vars, tightened 29 bounds.
Probing time = 0.00 sec. (0.10 ticks)
MIP emphasis: balance optimality and feasibility.
MIP search method: dynamic search.
Parallel mode: deterministic, using up to 16 threads.
Parallel mode: deterministic, using up to 3 threads for parallel tasks at root LP.
Tried aggregator 1 time.
Aggregator did 30 substitutions.
Reduced LP has 62 rows, 91 columns, and 240 nonzeros.
Presolve time = 0.00 sec. (0.07 ticks)
Initializing dual steep norms . . .

Iteration log . . .
Iteration:     1   Dual objective     =           112.319375
Iteration:    62   Dual objective     =            55.278927
Initializing dual steep norms . . .
Root relaxation solution time = 0.00 sec. (0.40 ticks)

        Nodes                                         Cuts/
   Node  Left     Objective  IInf  Best Integer    Best Bound    ItCnt     Gap

*     0+    0                            0.0000      113.9127              --- 
Found incumbent of value 0.000000 after 0.00 sec. (1.29 ticks)
      0     0       55.2769    30        0.0000       55.2769       64     --- 
*     0+    0                           37.2066       55.2769            48.57%
Found incumbent of value 37.206640 after 0.02 sec. (1.96 ticks)
      0     0       55.1792    30       37.2066      Cuts: 66      109   48.30%
      0     0       51.1930    24       37.2066      Cuts: 65      159   37.59%
      0     0       46.1416    25       37.2066     Cuts: 107      190   24.01%
      0     0       43.6643    26       37.2066      Cuts: 95      225   17.36%
      0     0       43.1999    27       37.2066     Cuts: 121      235   16.11%
Detecting symmetries...
      0     0       42.8047    27       37.2066      Cuts: 32      241   15.05%
      0     0       42.6717    26       37.2066      Cuts: 21      251   14.69%
      0     0       42.5585    26       37.2066    MIRcuts: 7      259   14.38%
      0     0       42.4565    25       37.2066      Cuts: 20      266   14.11%
      0     0       42.3682    25       37.2066   MIRcuts: 17      273   13.87%
      0     0       42.2827    23       37.2066      Cuts: 33      280   13.64%
      0     0       42.2378    24       37.2066      Cuts: 59      289   13.52%
      0     0       42.1545    26       37.2066      Cuts: 15      299   13.30%
      0     0       42.1339    26       37.2066     Cuts: 119      302   13.24%
      0     0       41.9939    26       37.2066      Cuts: 42      308   12.87%
      0     0       41.9853    26       37.2066    MIRcuts: 3      312   12.84%
      0     0       41.9851    26       37.2066    MIRcuts: 9      313   12.84%
      0     0       41.9789    26       37.2066    MIRcuts: 1      315   12.83%
*     0+    0                           37.3196       41.9789            12.48%
Found incumbent of value 37.319643 after 0.09 sec. (41.55 ticks)
Detecting symmetries...
      0     2       41.9789    26       37.3196       41.5889      315   11.44%
Elapsed time = 0.11 sec. (42.01 ticks, tree = 0.02 MB)

Performing restart 1

Repeating presolve.
Tried aggregator 1 time.
MIP Presolve modified 58 coefficients.
Reduced MIP has 92 rows, 121 columns, and 300 nonzeros.
Reduced MIP has 30 binaries, 0 generals, 0 SOSs, and 0 indicators.
Presolve time = 0.00 sec. (0.13 ticks)
Tried aggregator 1 time.
MIP Presolve modified 86 coefficients.
Reduced MIP has 92 rows, 121 columns, and 300 nonzeros.
Reduced MIP has 30 binaries, 0 generals, 0 SOSs, and 0 indicators.
Presolve time = 0.00 sec. (0.19 ticks)
Represolve time = 0.00 sec. (1.41 ticks)
Tried aggregator 1 time.
LP Presolve eliminated 16 rows and 0 columns.
Aggregator did 8 substitutions.
Reduced LP has 204 rows, 113 columns, and 1281 nonzeros.
Presolve time = 0.00 sec. (0.19 ticks)
Initializing dual steep norms . . .

Iteration log . . .
Iteration:     1   Dual objective     =            89.451182
Iteration:    62   Dual objective     =            47.242296
Iteration:   124   Dual objective     =            41.589902
Initializing dual steep norms . . .
   5068     0       41.4489    24       37.3196      Cuts: 68    29661    4.09%
   5068     0       41.2086    26       37.3196      Cuts: 32    29687    4.09%
   5068     0       41.1516    26       37.3196     Cuts: 123    29702    4.09%
   5068     0       41.0329    27       37.3196      Cuts: 91    29720    4.09%
   5068     0       40.9749    25       37.3196     Cuts: 109    29738    4.09%
  10022  1674        cutoff             37.3196       38.0874    59386    2.06%
                                                     Cuts: 21                  

Implied bound cuts applied:  2
Flow cuts applied:  3
Mixed integer rounding cuts applied:  38
Lift and project cuts applied:  36
Gomory fractional cuts applied:  1

Root node processing (before b&c):
  Real time             =    0.11 sec. (41.88 ticks)
Parallel b&c, 16 threads:
  Real time             =    0.50 sec. (286.16 ticks)
  Sync time (average)   =    0.12 sec.
  Wait time (average)   =    0.00 sec.
                          ------------
Total (root+branch&cut) =    0.61 sec. (328.05 ticks)

--- MIP status (102): integer optimal, tolerance.
--- Cplex Time: 0.61sec (det. 328.05 ticks)

--- Fixing integer variables and solving final LP...

Version identifier: 22.1.0.0 | 2022-03-09 | 1a383f8ce
CPXPARAM_Advance                                 2
CPXPARAM_Threads                                 16
CPXPARAM_Parallel                                1
CPXPARAM_MIP_Display                             4
CPXPARAM_MIP_Pool_Capacity                       0
CPXPARAM_TimeLimit                               1000
CPXPARAM_MIP_Tolerances_AbsMIPGap                0
Tried aggregator 1 time.
LP Presolve eliminated 60 rows and 61 columns.
Reduced LP has 32 rows, 61 columns, and 151 nonzeros.
Presolve time = 0.00 sec. (0.09 ticks)
Initializing dual steep norms . . .

Iteration log . . .
Iteration:     1   Dual objective     =            73.036188

--- Fixed MIP status (1): optimal.
--- Cplex Time: 0.00sec (det. 0.34 ticks)


Solution satisfies tolerances
MIP Solution:           37.319643    (84000 iterations, 14307 nodes)
Final Solve:            37.319643    (31 iterations)

Best possible:          37.323374
Absolute gap:            0.003731
Relative gap:            0.000100

--- Reading solution for model m3
--- Executing after solve: elapsed 0:00:24.693
--- MaxStdev.gms(154) 4 Mb
*** Status: Normal completion
--- Job MaxStdev.gms Stop 06/09/22 20:29:57 elapsed 0:00:24.694
